sat
(:added-eqs                       195
 :arith-eq-adapter                56
 :arith-bound-propagations-lp     6
 :arith-conflicts                 30
 :arith-diseq                     58
 :arith-fixed-eqs                 18
 :arith-gcd-calls                 4
 :arith-grobner-calls             18
 :arith-horner-calls              6
 :arith-horner-cross-nested-forms 44
 :arith-lower                     175
 :arith-make-feasible             98
 :arith-max-columns               680
 :arith-max-rows                  71
 :arith-nla-add-bounds            25
 :arith-nla-lemmas                10
 :arith-nla-propagate-bounds      12
 :arith-nla-propagate-eq          55
 :arith-nra-calls                 2
 :arith-patches                   4
 :arith-patches-success           4
 :arith-upper                     730
 :binary-propagations             1115
 :card2bv-rewrites                8
 :conflicts                       16
 :decisions                       2282
 :del-clause                      85
 :elim-unconstrained              19
 :final-checks                    47
 :max-memory                      23.52
 :memory                          18.94
 :minimized-lits                  1
 :mk-bool-var                     999
 :mk-clause                       146
 :mk-clause-binary                798
 :nlsat-conflicts                 171
 :nlsat-decisions                 4
 :nlsat-propagations              2037
 :nlsat-stages                    1668
 :num-allocs                      9421603
 :num-checks                      1
 :propagations                    1204
 :rlimit-count                    277878
 :time                            0.16
 :total-time                      0.18)
